c Created with the Wolfram Language : www.wolfram.com
c 
p edge 60 373
e 1 3
e 2 3
e 1 5
e 2 5
e 2 6
e 6 7
e 3 8
e 4 8
e 1 9
e 7 9
e 8 9
e 3 10
e 2 11
e 12 13
e 1 14
e 8 14
e 9 14
e 4 15
e 10 15
e 11 15
e 5 16
e 8 16
e 11 16
e 9 17
e 12 17
e 14 17
e 16 17
e 3 18
e 7 18
e 11 18
e 8 19
e 9 19
e 10 19
e 14 19
e 16 19
e 17 19
e 2 20
e 6 20
e 9 20
e 10 20
e 11 20
e 15 20
e 19 20
e 6 21
e 7 21
e 10 21
e 14 21
e 2 22
e 7 22
e 9 22
e 18 22
e 8 23
e 11 23
e 17 24
e 19 24
e 21 24
e 22 24
e 3 25
e 5 25
e 8 25
e 9 25
e 10 25
e 11 25
e 13 25
e 16 25
e 18 25
e 6 26
e 15 26
e 18 26
e 19 26
e 22 26
e 24 26
e 3 27
e 6 27
e 9 27
e 11 27
e 3 28
e 5 28
e 9 28
e 10 28
e 11 28
e 14 28
e 20 28
e 21 28
e 5 29
e 14 29
e 16 29
e 21 29
e 2 30
e 3 30
e 7 30
e 13 30
e 23 30
e 28 30
e 5 31
e 9 31
e 13 31
e 14 31
e 5 32
e 8 32
e 10 32
e 12 32
e 14 32
e 17 32
e 19 32
e 22 32
e 25 32
e 29 32
e 3 33
e 4 33
e 18 33
e 21 33
e 25 33
e 27 33
e 28 33
e 29 33
e 32 33
e 6 34
e 7 34
e 10 34
e 14 34
e 24 34
e 29 34
e 5 35
e 6 35
e 7 35
e 9 35
e 10 35
e 12 35
e 14 35
e 15 35
e 27 35
e 5 36
e 7 36
e 9 36
e 11 36
e 12 36
e 21 36
e 32 36
e 34 36
e 16 37
e 20 37
e 21 37
e 28 37
e 29 37
e 30 37
e 34 37
e 36 37
e 5 38
e 6 38
e 23 38
e 31 38
e 22 39
e 23 39
e 28 39
e 31 39
e 34 39
e 3 40
e 4 40
e 6 40
e 8 40
e 12 40
e 15 40
e 17 40
e 19 40
e 28 40
e 3 41
e 7 41
e 11 41
e 16 41
e 20 41
e 22 41
e 27 41
e 28 41
e 30 41
e 35 41
e 2 42
e 3 42
e 5 42
e 9 42
e 16 42
e 27 42
e 30 42
e 31 42
e 41 42
e 2 43
e 3 43
e 4 43
e 8 43
e 12 43
e 17 43
e 21 43
e 32 43
e 36 43
e 3 44
e 5 44
e 16 44
e 18 44
e 34 44
e 35 44
e 2 45
e 3 45
e 15 45
e 19 45
e 22 45
e 40 45
e 44 45
e 3 46
e 13 46
e 15 46
e 16 46
e 19 46
e 22 46
e 23 46
e 30 46
e 37 46
e 39 46
e 41 46
e 42 46
e 45 46
e 5 47
e 17 47
e 20 47
e 22 47
e 25 47
e 39 47
e 42 47
e 4 48
e 7 48
e 8 48
e 12 48
e 14 48
e 17 48
e 24 48
e 39 48
e 43 48
e 4 49
e 18 49
e 20 49
e 27 49
e 37 49
e 39 49
e 43 49
e 44 49
e 48 49
e 10 50
e 12 50
e 13 50
e 23 50
e 27 50
e 30 50
e 32 50
e 33 50
e 34 50
e 36 50
e 44 50
e 46 50
e 2 51
e 9 51
e 14 51
e 16 51
e 25 51
e 26 51
e 35 51
e 40 51
e 42 51
e 46 51
e 47 51
e 15 52
e 17 52
e 20 52
e 22 52
e 23 52
e 25 52
e 27 52
e 29 52
e 42 52
e 44 52
e 47 52
e 49 52
e 2 53
e 7 53
e 19 53
e 20 53
e 26 53
e 27 53
e 34 53
e 37 53
e 50 53
e 51 53
e 1 54
e 2 54
e 3 54
e 5 54
e 9 54
e 14 54
e 16 54
e 20 54
e 24 54
e 26 54
e 29 54
e 30 54
e 42 54
e 5 55
e 6 55
e 13 55
e 18 55
e 19 55
e 27 55
e 33 55
e 37 55
e 39 55
e 46 55
e 47 55
e 3 56
e 4 56
e 5 56
e 6 56
e 12 56
e 14 56
e 25 56
e 35 56
e 37 56
e 38 56
e 44 56
e 45 56
e 51 56
e 54 56
e 55 56
e 12 57
e 22 57
e 30 57
e 35 57
e 39 57
e 44 57
e 51 57
e 53 57
e 3 58
e 18 58
e 19 58
e 21 58
e 25 58
e 27 58
e 32 58
e 35 58
e 42 58
e 45 58
e 55 58
e 3 59
e 8 59
e 9 59
e 21 59
e 22 59
e 29 59
e 38 59
e 39 59
e 41 59
e 46 59
e 47 59
e 51 59
e 53 59
e 54 59
e 2 60
e 9 60
e 20 60
e 21 60
e 23 60
e 33 60
e 39 60
e 40 60
e 48 60
e 51 60
e 53 60
